RT is False
Default write of storage_offers_DA.csv just to have a file (but constraint should be inactive)
Reading model...
...model read.
creating competitive generators file...
...competitive generators recorded.
Loading data...
.. day-ahead data with real-time VRE data read.
Compiling instance...
...instance created.
Creating Offer Mitigation (model will solve as dispatch if TRUE)...
Solving...

Welcome to IBM(R) ILOG(R) CPLEX(R) Interactive Optimizer 12.9.0.0
  with Simplex, Mixed Integer & Barrier Optimizers
5725-A06 5725-A29 5724-Y48 5724-Y49 5724-Y54 5724-Y55 5655-Y21
Copyright IBM Corp. 1988, 2019.  All Rights Reserved.

Type 'help' for a list of available commands.
Type 'help' followed by a command name for more
information on commands.

CPLEX> Logfile 'cplex.log' closed.
Logfile 'C:\Users\llavin\Desktop\test919\logs\tmp0r3szhfn.cplex.log' open.
CPLEX> New value for parallel optimization mode: -1
CPLEX> New value for mixed integer optimality gap tolerance: 0.01
CPLEX> New value for integrality tolerance: 1e-09
CPLEX> New value for feasibility tolerance: 0.01
CPLEX> New value for deterministic time limit in ticks: 75000
CPLEX> Problem 'C:\Users\llavin\Desktop\test919\logs\tmpqv5rkfb9.pyomo.lp' read.
Read time = 0.06 sec. (3.04 ticks)
CPLEX> Problem name         : C:\Users\llavin\Desktop\test919\logs\tmpqv5rkfb9.pyomo.lp
Objective sense      : Minimize
Variables            :   26081  [Nneg: 1,  Box: 21616,  Free: 4464]
Objective nonzeros   :    2496
Linear constraints   :   27515  [Less: 14006,  Greater: 4416,  Equal: 9093]
  Nonzeros           :   89219
  RHS nonzeros       :   12278

Variables            : Min LB: -5000.000        Max UB: 1000000.       
Objective nonzeros   : Min   : 15.73158         Max   : 124.0997       
Linear constraints   :
  Nonzeros           : Min   : 0.8500000        Max   : 3000.000       
  RHS nonzeros       : Min   : 0.01666667       Max   : 5000.000       
CPLEX> CPXPARAM_Parallel                                -1
CPXPARAM_Simplex_Tolerances_Feasibility          0.01
CPXPARAM_DetTimeLimit                            75000
CPXPARAM_MIP_Tolerances_MIPGap                   0.01
CPXPARAM_MIP_Tolerances_Integrality              1.0000000000000001e-09
Parallel mode: opportunistic, using up to 32 threads for concurrent optimization.
Tried aggregator 1 time.
LP Presolve eliminated 21377 rows and 15483 columns.
Aggregator did 747 substitutions.
Reduced LP has 5391 rows, 9851 columns, and 31783 nonzeros.
Presolve time = 0.05 sec. (30.20 ticks)
Symmetry aggregator did 5563 additional substitutions.

Iteration log . . .
Iteration:     1   Dual objective     =             0.000000
Perturbation started.
Iteration:   101   Dual objective     =             0.000000
Iteration:   337   Dual objective     =             1.329655
Iteration:   594   Dual objective     =             1.895755
Iteration:   859   Dual objective     =             2.038293
Iteration:  1080   Dual objective     =             2.155736
Iteration:  1350   Dual objective     =             2.198419
Iteration:  1593   Dual objective     =             2.226591
Iteration:  1822   Dual objective     =             2.249125
Iteration:  2025   Dual objective     =             2.271776
Iteration:  2224   Dual objective     =          6465.041710
Iteration:  2447   Dual objective     =         26251.782696
Iteration:  2718   Dual objective     =         31927.166232
Iteration:  3138   Dual objective     =         34232.996283
Removing perturbation.
Using devex.

Primal simplex solved model.


Primal simplex - Optimal:  Objective =  3.4230694877e+04
Solution time =    0.17 sec.  Iterations = 1542 (1100)
Deterministic time = 76.73 ticks  (446.13 ticks/sec)

CPLEX> Solution written to file 'C:\Users\llavin\Desktop\test919\logs\tmp6029fi5i.cplex.sol'.
CPLEX> Exporting results... 
...storage offer mitigation file created
Converting model to MPEC...
...converted
NOTE: initial MIP solve with only storage competitive to get feasible solution
Solving...

Welcome to IBM(R) ILOG(R) CPLEX(R) Interactive Optimizer 12.9.0.0
  with Simplex, Mixed Integer & Barrier Optimizers
5725-A06 5725-A29 5724-Y48 5724-Y49 5724-Y54 5724-Y55 5655-Y21
Copyright IBM Corp. 1988, 2019.  All Rights Reserved.

Type 'help' for a list of available commands.
Type 'help' followed by a command name for more
information on commands.

CPLEX> Logfile 'cplex.log' closed.
Logfile 'C:\Users\llavin\Desktop\test919\logs\tmpgxujh9gg.cplex.log' open.
CPLEX> New value for parallel optimization mode: -1
CPLEX> New value for mixed integer optimality gap tolerance: 0.01
CPLEX> New value for integrality tolerance: 1e-09
CPLEX> New value for feasibility tolerance: 0.01
CPLEX> New value for deterministic time limit in ticks: 75000
CPLEX> Problem 'C:\Users\llavin\Desktop\test919\logs\tmpd5cawtzh.pyomo.lp' read.
Read time = 0.23 sec. (14.78 ticks)
CPLEX> Problem name         : C:\Users\llavin\Desktop\test919\logs\tmpd5cawtzh.pyomo.lp
Objective sense      : Maximize
Variables            :   53805  [Nneg: 1,  Box: 22000,  Free: 4464,
                                 Binary: 27340]
Objective nonzeros   :    9036
Linear constraints   :  123205  [Less: 41346,  Greater: 59096,  Equal: 22763]
  Nonzeros           :  291760
  RHS nonzeros       :   67420

Variables            : Min LB: -5000.000        Max UB: 1000000.       
Objective nonzeros   : Min   : 0.01666667       Max   : 2500.000       
Linear constraints   :
  Nonzeros           : Min   : 0.01666667       Max   : 1000000.       
  RHS nonzeros       : Min   : 0.01666667       Max   : 1000000.       
CPLEX> CPXPARAM_Parallel                                -1
CPXPARAM_Simplex_Tolerances_Feasibility          0.01
CPXPARAM_DetTimeLimit                            75000
CPXPARAM_MIP_Tolerances_MIPGap                   0.01
CPXPARAM_MIP_Tolerances_Integrality              1.0000000000000001e-09
Tried aggregator 3 times.
MIP Presolve eliminated 88622 rows and 18951 columns.
MIP Presolve added 3386 rows and 0 columns.
MIP Presolve modified 24882 coefficients.
Aggregator did 13006 substitutions.
Reduced MIP has 24963 rows, 21297 columns, and 71197 nonzeros.
Reduced MIP has 8424 binaries, 0 generals, 0 SOSs, and 0 indicators.
Presolve time = 0.28 sec. (173.83 ticks)
Probing fixed 370 vars, tightened 2852 bounds.
Probing time = 1.22 sec. (891.52 ticks)
Tried aggregator 2 times.
MIP Presolve eliminated 837 rows and 740 columns.
MIP Presolve modified 2220 coefficients.
Aggregator did 31 substitutions.
Reduced MIP has 24095 rows, 20526 columns, and 68690 nonzeros.
Reduced MIP has 8054 binaries, 0 generals, 0 SOSs, and 0 indicators.
Presolve time = 0.09 sec. (67.58 ticks)
Probing time = 0.05 sec. (16.01 ticks)
Clique table members: 6509.
MIP emphasis: balance optimality and feasibility.
MIP search method: dynamic search.
Parallel mode: opportunistic, using up to 32 threads.
Root relaxation solution time = 0.39 sec. (492.51 ticks)

        Nodes                                         Cuts/
   Node  Left     Objective  IInf  Best Integer    Best Bound    ItCnt     Gap

      0     0        0.0000   633                      0.0000     5266         
*     0     0      integral     0        0.0000        0.0000     5266    0.00%
Elapsed time = 3.67 sec. (2691.64 ticks, tree = 0.01 MB, solutions = 1)

Root node processing (before b&c):
  Real time             =    3.69 sec. (2693.59 ticks)
Parallel b&c, 32 threads:
  Real time             =    0.00 sec. (0.00 ticks)
  Sync time (average)   =    0.00 sec.
  Wait time (average)   =    0.00 sec.
                          ------------
Total (root+branch&cut) =    3.69 sec. (2693.59 ticks)

Solution pool: 1 solution saved.

MIP - Integer optimal solution:  Objective =  3.3105607145e-10
Solution time =    3.70 sec.  Iterations = 5266  Nodes = 0
Deterministic time = 2693.74 ticks  (727.45 ticks/sec)

CPLEX> Incumbent solution written to file 'C:\Users\llavin\Desktop\test919\logs\tmpxb65e7pt.cplex.sol'.
CPLEX> NOTE: no warmstart specified for MIP iteration, default behavior is true
NOTE: resolving with all competitive generators using storage-only solution to warmstart
Solving...

Welcome to IBM(R) ILOG(R) CPLEX(R) Interactive Optimizer 12.9.0.0
  with Simplex, Mixed Integer & Barrier Optimizers
5725-A06 5725-A29 5724-Y48 5724-Y49 5724-Y54 5724-Y55 5655-Y21
Copyright IBM Corp. 1988, 2019.  All Rights Reserved.

Type 'help' for a list of available commands.
Type 'help' followed by a command name for more
information on commands.

CPLEX> Logfile 'cplex.log' closed.
Logfile 'C:\Users\llavin\Desktop\test919\logs\tmpbafgrldt.cplex.log' open.
CPLEX> New value for parallel optimization mode: -1
CPLEX> New value for mixed integer optimality gap tolerance: 0.01
CPLEX> New value for integrality tolerance: 1e-09
CPLEX> New value for feasibility tolerance: 0.01
CPLEX> New value for deterministic time limit in ticks: 75000
CPLEX> Problem 'C:\Users\llavin\Desktop\test919\logs\tmp02kxw6t9.pyomo.lp' read.
Read time = 0.23 sec. (14.81 ticks)
CPLEX> MIP start file 'C:\Users\llavin\Desktop\test919\logs\tmpxppnqpg5.cplex.mst' read.
CPLEX> Problem name         : C:\Users\llavin\Desktop\test919\logs\tmp02kxw6t9.pyomo.lp
Objective sense      : Maximize
Variables            :   54525  [Nneg: 1,  Box: 22720,  Free: 4464,
                                 Binary: 27340]
Objective nonzeros   :    9732
Linear constraints   :  123205  [Less: 41346,  Greater: 59096,  Equal: 22763]
  Nonzeros           :  291760
  RHS nonzeros       :   67420

Variables            : Min LB: -5000.000        Max UB: 1000000.       
Objective nonzeros   : Min   : 0.01666667       Max   : 2500.000       
Linear constraints   :
  Nonzeros           : Min   : 0.01666667       Max   : 1000000.       
  RHS nonzeros       : Min   : 0.01666667       Max   : 1000000.       
CPLEX> CPXPARAM_Parallel                                -1
CPXPARAM_Simplex_Tolerances_Feasibility          0.01
CPXPARAM_DetTimeLimit                            75000
CPXPARAM_MIP_Tolerances_MIPGap                   0.01
CPXPARAM_MIP_Tolerances_Integrality              1.0000000000000001e-09
Warning:  No solution found from 1 MIP starts.
Retaining values of one MIP start for possible repair.
Tried aggregator 3 times.
MIP Presolve eliminated 88622 rows and 19671 columns.
MIP Presolve added 3386 rows and 0 columns.
MIP Presolve modified 24882 coefficients.
Aggregator did 13006 substitutions.
Reduced MIP has 24963 rows, 21297 columns, and 71197 nonzeros.
Reduced MIP has 8424 binaries, 0 generals, 0 SOSs, and 0 indicators.
Presolve time = 0.28 sec. (174.19 ticks)
Probing fixed 370 vars, tightened 2852 bounds.
Probing time = 1.22 sec. (891.52 ticks)
Tried aggregator 2 times.
MIP Presolve eliminated 837 rows and 740 columns.
MIP Presolve modified 2220 coefficients.
Aggregator did 31 substitutions.
Reduced MIP has 24095 rows, 20526 columns, and 68690 nonzeros.
Reduced MIP has 8054 binaries, 0 generals, 0 SOSs, and 0 indicators.
Presolve time = 0.11 sec. (67.59 ticks)
Probing time = 0.05 sec. (16.01 ticks)
Clique table members: 6509.
MIP emphasis: balance optimality and feasibility.
MIP search method: dynamic search.
Parallel mode: opportunistic, using up to 32 threads.
Root relaxation solution time = 0.30 sec. (237.27 ticks)

        Nodes                                         Cuts/
   Node  Left     Objective  IInf  Best Integer    Best Bound    ItCnt     Gap

      0     0   120387.5674  1694                 120387.5674     5314         
      0     0   116068.7330   618                   Cuts: 735     5664         
      0     0   115570.8093   552                   Cuts: 307     5777         
      0     0   115570.8093   501                   Cuts: 195     5843         
      0     0   115561.0479   480                   Cuts: 112     5884         
      0     0   115561.0479   457                    Cuts: 95     5939         
      0     0   115534.8204   445                    Cuts: 77     5960         
      0     0   115534.8204   437                    Cuts: 75     5975         
      0     0   115534.8204   427                    Cuts: 58     5985         
      0     0   115534.8204   428                    Cuts: 49     5988         
      0     0   115534.8204   428                    Cuts: 50     5993         
Repair heuristic found nothing.
      0     2   115534.8204   428                    Cuts: 24     5993         
Elapsed time = 11.25 sec. (6287.29 ticks, tree = 0.02 MB, solutions = 0)
    284    49    95328.5158   368                 110639.6569     8643         
    727   191    39893.3442   330                 110639.6569    12594         
   1320   528    48282.2328   338                 110639.6569    21530         
   1941  1090    infeasible                       110639.6569    37143         
   2529  1356    23033.5905   324                 110639.6569    42507         
   3036  1684      830.5814   306                 110639.6569    48293         
   3639  1916     3762.4553   272                 110639.6569    50910         
   4498  2337   -11268.1798   254                 110639.6569    54331         
   5740  3139     8800.0524   282                 110639.6569    57688         
   9741  7384    -7193.8176   204                 110639.6569    62148         
Elapsed time = 28.53 sec. (9389.88 ticks, tree = 59.29 MB, solutions = 0)
* 10779  8432      integral     0  -166688.2744   110639.6569    63767  166.38%
  13243  6886    62537.4082   357   -13319.1760   109642.3753    67829  923.19%
  14278  7501     5996.0081   324   -13319.1760   109642.3753    73051  923.19%
  14376  8972    48838.3566   115   -13319.1760    61670.9548    92227  563.02%
  14822    68     1371.6225    88   -13319.1760    38064.6202    94291  385.79%
  15612   155   -11548.1350    87   -13319.1760    37821.4523    96797  383.96%
  16942   452    -2551.3518   100   -13319.1760    28341.4272   107137  312.79%
  18678  1002        cutoff           7019.4882    19630.4192   125991  179.66%
  19779  1515     1283.4215    14     7019.4882    13998.9453   138845   99.43%

Clique cuts applied:  5
Cover cuts applied:  11
Implied bound cuts applied:  18
Flow cuts applied:  329
Mixed integer rounding cuts applied:  41
Zero-half cuts applied:  1
Gomory fractional cuts applied:  61

Root node processing (before b&c):
  Real time             =    9.20 sec. (6244.86 ticks)
Parallel b&c, 32 threads:
  Real time             =   57.59 sec. (16720.96 ticks)
  Sync time (average)   =    3.72 sec.
  Wait time (average)   =    0.19 sec.
                          ------------
Total (root+branch&cut) =   66.80 sec. (22965.82 ticks)

Solution pool: 6 solutions saved.

MIP - Integer optimal, tolerance (0.01/1e-06):  Objective =  7.0194882362e+03
Current MIP best bound =  7.0800793485e+03 (gap = 60.5911, 0.86%)
Solution time =   66.83 sec.  Iterations = 177559  Nodes = 19922 (39)
Deterministic time = 22965.98 ticks  (343.66 ticks/sec)

CPLEX> Incumbent solution written to file 'C:\Users\llavin\Desktop\test919\logs\tmpdccu6431.cplex.sol'.
CPLEX> Exporting results... 
